GPU_version/outputs/rc105.out
Total number of lines in the file: 110
Total number of nodes including depot: 101
Customer 1: (40, 50), Demand: 0, Time Window: [0, 240], Service Time: 0
Customer 2: (25, 85), Demand: 20, Time Window: [71, 191], Service Time: 10
Customer 3: (22, 75), Demand: 30, Time Window: [30, 150], Service Time: 10
Customer 4: (22, 85), Demand: 10, Time Window: [64, 184], Service Time: 10
Customer 5: (20, 80), Demand: 40, Time Window: [151, 161], Service Time: 10
calling MST kernel
Post Processing Route
Post 2 opt Processing Route
2-opt between 9 and 11 improved cost from 2742.46 to 2741.89
Elapsed time: 0.678366 seconds
Final Route: 
Route #1: 80 91 
Route #2: 92 95 62 67 50 34 31 
Route #3: 29 27 26 28 
Route #4: 30 32 
Route #5: 33 84 85 
Route #6: 63 76 89 
Route #7: 51 56 
Route #8: 64 94 96 54 
Route #9: 72 41 
Route #10: 39 40 
Route #11: 42 44 43 
Route #12: 38 37 
Route #13: 36 35 
Route #14: 81 61 68 93 
Route #15: 71 90 
Route #16: 69 98 88 60 
Route #17: 78 12 
Route #18: 14 47 15 16 17 
Route #19: 11 10 
Route #20: 9 13 
Route #21: 73 79 7 
Route #22: 8 46 4 
Route #23: 45 5 3 1 6 2 55 100 
Route #24: 70 
Route #25: 53 
Route #26: 65 82 99 52 86 74 
Route #27: 87 59 97 58 
Route #28: 75 77 
Route #29: 25 
Route #30: 23 21 48 18 
Route #31: 19 49 20 
Route #32: 22 24 
Route #33: 57 66 
Route #34: 83 
Route #35: Total Distance: 2742.46
Final route is valid
