outputs/rc105.txt.out
filename: RC105
Vehicles: 25, Capacity: 200
Total customers : 101
No of routes: 33
Route #1: 90
Route #2: 69 98 88 60
Route #3: 78 12
Route #4: 14 47 15 16 17
Route #5: 11 10
Route #6: 9 13
Route #7: 73 79 7
Route #8: 8 46 4
Route #9: 45 5 3 1 6 2 55 100
Route #10: 70
Route #11: 53
Route #12: 65 82 99 52 86 74
Route #13: 87 59 97 58
Route #14: 75 77
Route #15: 25
Route #16: 23 21 48 19 49 20
Route #17: 22 24
Route #18: 57 18 66
Route #19: 83 91 80
Route #20: 92 95 62 67 31 34 50
Route #21: 29 27 26 28
Route #22: 30 32
Route #23: 84 85 33
Route #24: 63 76 89
Route #25: 51 56
Route #26: 64 94 93
Route #27: 96 71 54
Route #28: 81 61 68
Route #29: 72 41
Route #30: 39 40
Route #31: 38 37
Route #32: 36 35
Route #33: 42 44 43
Cost 2633
